!&EXT_RESTART
! RESTART_FILE_NAME /home/fambrosi/DMA/dynamics/2e-/perov-md-1.restart
!&END EXT_RESTART
&FORCE_EVAL
  METHOD         Quickstep

  &DFT
	    BASIS_SET_FILE_NAME /g100_work/IscrC_MHP-DEF/BASIS/BASIS_MOLOPT.txt
	    POTENTIAL_FILE_NAME /g100_work/IscrC_MHP-DEF/BASIS/GTH_POTENTIALS.txt
	    BASIS_SET_FILE_NAME /g100_work/IscrC_MHP-DEF/BASIS/BASIS_ADMM_MOLOPT.txt
	    BASIS_SET_FILE_NAME /g100_work/IscrC_MHP-DEF/BASIS/BASIS_ADMM.txt
!	    WFN_RESTART_FILE_NAME /g100_work/IscrC_MHP-DEF/CBB/polarone/pol1/relax/pol1-RESTART.wfn 
   CHARGE -1
    UKS T
    &MGRID
      CUTOFF       600
      REL_CUTOFF    50
    &END MGRID
    &QS
    &END QS
    &SCF
      SCF_GUESS  RESTART
      MAX_SCF    50
      &OT
        MINIMIZER       CG
        PRECONDITIONER  FULL_SINGLE_INVERSE
      &END
      &OUTER_SCF
        MAX_SCF  50
      &END

    &END SCF
    &AUXILIARY_DENSITY_MATRIX_METHOD
        METHOD BASIS_PROJECTION
        ADMM_PURIFICATION_METHOD MO_DIAG
     &END AUXILIARY_DENSITY_MATRIX_METHOD

&XC
 &XC_FUNCTIONAL
  &PBE
!   PARAMETRIZATION REVPBE
   SCALE_X 0.69
   SCALE_C 1.0
 &END PBE
 &PBE_HOLE_T_C_LR
 CUTOFF_RADIUS 7.9
 SCALE_X 0.31
 &END PBE_HOLE_T_C_LR
&END XC_FUNCTIONAL
&HF
&SCREENING
EPS_SCHWARZ 1.0E-6
SCREEN_ON_INITIAL_P FALSE
&END SCREENING
&INTERACTION_POTENTIAL
POTENTIAL_TYPE TRUNCATED
CUTOFF_RADIUS 7.9
T_C_G_DATA  /g100_work/IscrC_MHP-DEF/t_c_g.dat
&END INTERACTION_POTENTIAL
&MEMORY
MAX_MEMORY 3600
EPS_STORAGE_SCALING 0.1
&END MEMORY
FRACTION 0.31
&END HF
      ! non-local vdW part
      &vdW_POTENTIAL
         DISPERSION_FUNCTIONAL NON_LOCAL
         &NON_LOCAL
           TYPE RVV10
           PARAMETERS  6.3  0.0093
           KERNEL_FILE_NAME   /g100_work/IscrC_MHP-DEF/rVV10_kernel_table.dat   
           CUTOFF      400
         &END NON_LOCAL
      &END vdW_POTENTIAL
    &END XC
  &END DFT
  &SUBSYS
    &CELL
      ABC   
    &END CELL
    &TOPOLOGY
      COORD_FILE_NAME  ./initial.xyz
      COORD_FILE_FORMAT xyz
    &END TOPOLOGY
    &KIND Pb
      BASIS_SET DZVP-MOLOPT-SR-GTH-q4
      POTENTIAL GTH-PBE-q4
    &END KIND
    &KIND Br
      BASIS_SET DZVP-MOLOPT-SR-GTH-q7 
      BASIS_SET AUX_FIT cFIT6 !SZV-MOLOPT-SR-GTH
      POTENTIAL GTH-PBE-q7
    &END KIND
    &KIND O
      BASIS_SET DZVP-MOLOPT-GTH-q6
      POTENTIAL GTH-PBE-q6
    &END KIND
    &KIND H
      BASIS_SET DZVP-MOLOPT-SR-GTH-q1
      POTENTIAL GTH-PBE-q1
    &END KIND
    &KIND C
      BASIS_SET DZVP-MOLOPT-GTH-q4
      POTENTIAL GTH-PBE-q4
!      BASIS_SET AUX_FIT cFIT3 !SZV-MOLOPT-SR-GTH
    &END KIND
    &KIND N
      BASIS_SET DZVP-MOLOPT-GTH-q5
      POTENTIAL GTH-PBE-q5
!      BASIS_SET AUX_FIT cFIT3 !SZV-MOLOPT-SR-GTH
    &END KIND
    &KIND Sn
      BASIS_SET DZVP-MOLOPT-SR-GTH-q4
      POTENTIAL GTH-PBE-q4
!      BASIS_SET AUX_FIT cFIT6 !SZV-MOLOPT-SR-GTH
    &END KIND
    &KIND Bi
      BASIS_SET         DZVP-MOLOPT-SR-GTH-q5
      BASIS_SET AUX_FIT cFIT6
      POTENTIAL         GTH-PBE-q5
    &END KIND
    &KIND Cs
      BASIS_SET DZVP-MOLOPT-SR-GTH-q9  
      BASIS_SET AUX_FIT cFIT7 !SZV-MOLOPT-SR-GTH
      POTENTIAL GTH-PBE-q9
    &END KIND
  &END SUBSYS
&END FORCE_EVAL
&MOTION
   &CONSTRAINT
   &FIXED_ATOMS
   LIST 1 2
   LIST 3 4 6
   LIST 7 11 12 13
   LIST 14..31
   LIST 33 34
   LIST 36..39
   LIST 40..45
   LIST 47..58
   LIST 59..84
   LIST 86 88 90
   LIST 92..96
   LIST 97..167
   LIST 169..213
   LIST 214..218
   LIST 221 222 223
 &END FIXED_ATOMS
 &END CONSTRAINT
&BAND
NUMBER_OF_REPLICA 9             # Number of "replica" geometries along the path
NPROC_REP 96 # Number of cores per replica
K_SPRING 0.05
ALIGN_FRAMES FALSE
ROTATE_FRAMES FALSE
&OPTIMIZE_BAND
OPTIMIZE_END_POINTS F
OPT_TYPE DIIS
&DIIS
        MAX_STEPS 200
&END
&END
BAND_TYPE CI-NEB # Climbing-image NEB
&CI_NEB
NSTEPS_IT 5                     # First take 5 normal steps, then start CI
&END
&REPLICA
COORD_FILE_NAME ./initial.xyz
&END
&REPLICA
COORD_FILE_NAME ./pol-hop-0-125.xyz
&END
&REPLICA
COORD_FILE_NAME ./pol-hop-0-25.xyz
&END
&REPLICA
COORD_FILE_NAME ./pol-hop-0-375.xyz
&END
&REPLICA
COORD_FILE_NAME ./medium.xyz
&END
&REPLICA
COORD_FILE_NAME ./pol-hop-0-625.xyz
&END
&REPLICA
COORD_FILE_NAME ./pol-hop-0-75.xyz
&END
&REPLICA
COORD_FILE_NAME ./pol-hop-0-875.xyz
&END
&REPLICA
COORD_FILE_NAME ./final.xyz
&END
&PROGRAM_RUN_INFO
INITIAL_CONFIGURATION_INFO
&END
&END BAND
&PRINT
&TRAJECTORY
FORMAT XYZ
&END TRAJECTORY
&END PRINT
  &END MOTION
&GLOBAL
  PROJECT      neb
  RUN_TYPE     BAND
  PRINT_LEVEL  LOW
&END GLOBAL
&EXT_RESTART
    RESTART_DEFAULT TRUE             # Enables automatic generation of restart files
&END
